p cnf 50 15
x -1 -2 -3 5 -6 -7 -11 15 18 -19 -22 -24 26 -27 -32 36 37 40 -42 -43 44 45 -46 48 0
x -1 2 3 -4 -8 -11 -12 -13 19 20 -21 -25 27 -30 -31 32 -34 39 42 43 45 48 -49 0
x 2 -3 -5 -6 -7 9 11 -14 -20 21 25 26 -28 29 31 -32 -34 -36 38 39 40 -41 -42 -43 -45 -46 48 -50 0
x -1 -2 -3 4 5 7 8 -10 -20 -21 23 24 -27 30 31 32 -34 35 37 -38 40 -41 43 -45 48 49 0
x -1 -3 -5 -7 -11 -12 15 18 -22 23 24 -26 27 28 -29 -32 35 36 -37 -38 -44 -45 46 47 48 50 0
x 5 -7 -8 -10 13 16 -17 -18 -19 -20 -24 26 28 31 -33 -36 -38 39 41 -42 -43 44 -46 -47 48 49 0
x -1 2 -3 5 -8 -10 11 -13 -19 21 -22 23 -25 28 30 -32 34 39 -40 41 42 43 -44 -47 -49 0
x -4 5 -7 -8 -10 -11 -12 -14 -15 -16 19 22 25 -28 30 -31 32 33 34 37 41 43 -45 -46 -48 49 -50 0
x -2 -4 5 14 -15 16 17 -21 -22 24 25 28 33 34 35 -38 -41 42 44 46 49 50 0
x 1 -2 4 -5 6 7 -8 9 11 13 -14 15 -18 24 25 28 -29 31 32 33 34 37 39 40 -46 47 48 0
x -2 -4 6 7 -8 -9 -12 17 -19 22 -25 26 -27 28 29 31 34 35 -38 40 -47 -50 0
x -2 3 -4 6 7 -8 11 -12 -14 15 -16 -18 -20 -24 -27 28 -29 30 31 -33 -36 38 40 41 42 -44 47 -48 -49 0
x 4 5 -7 -11 12 13 -16 -20 -24 -25 27 -30 31 -34 36 38 -41 44 -46 -47 48 0
x -1 2 7 -12 19 20 21 -25 26 -32 33 -35 36 -39 41 -43 44 48 -50 0
x 1 -4 11 -12 -13 14 -15 17 -19 -21 23 -25 26 -28 29 -30 -31 -35 -37 -41 42 47 -48 -49 50 0
g -20